\ENCODING=ISO-8859-1
\Problem name: IloCplex

Maximize
 obj: x1
Subject To
 c1:  - x2  = 0
 c2:  - x2 - x3 - x4 - x5 - x6 - x7 - x8 - x9  = -331.180572509766
 c3:  - x2 - x10 - x11 - x12 - x13 - x14 - x15 - x16 - x17 - x18 - x19 - x20
       = -262.778106689453
 c4:  - x2 - x21 - x22 - x23 - x24 - x25 - x26 - x27 - x28 - x29 - x30 - x31
       = -332.609771728516
 c5:  - x2 - x32 - x33 - x34 - x35 - x36 - x37 - x38 - x39 - x40 - x41
       = -320.119262695312
 c6:  - x2 - x42 - x43 - x44 - x45 - x46 - x47  = -418.425659179688
 c7:  - x2 - x48 - x49 - x50  = -247.147644042969
 c8:  - x1 - x2 - x32 >= -121.766471862793
 c9:  - x1 - x2 - x21 >= -71.5112609863281
 c10: - x1 - x2 - x10 >= -96.3265914916992
 c11: - x1 - x2 - x33 >= -116.816802978516
 c12: - x1 - x2 - x42 >= -180.246719360352
 c13: - x1 - x2 - x3 >= -90.6663589477539
 c14: - x1 - x2 - x11 >= -17.5355415344238
 c15: - x1 - x2 - x34 >= -188.024505615234
 c16: - x1 - x2 - x4 >= -34.5472793579102
 c17: - x1 - x2 - x5 >= -37.9268951416016
 c18: - x1 - x2 - x12 >= -45.0502738952637
 c19: - x1 - x2 - x22 >= -123.032737731934
 c20: - x1 - x2 - x35 >= -235.735870361328
 c21: - x1 - x2 - x36 >= -101.631523132324
 c22: - x1 - x2 - x23 >= -113.270530700684
 c23: - x1 - x2 - x37 >= -117.685691833496
 c24: - x1 - x2 - x48 >= -194.249084472656
 c25: - x1 - x2 - x43 >= -142.508651733398
 c26: - x1 - x2 - x6 >= -168.800796508789
 c27: - x1 - x2 - x38 >= -165.958831787109
 c28: - x1 - x2 - x49 >= -125.782539367676
 c29: - x1 - x2 - x13 >= -50.0124549865723
 c30: - x1 - x2 - x24 >= -95.3877716064453
 c31: - x1 - x2 - x25 >= -110.197616577148
 c32: - x1 - x2 - x26 >= -117.847106933594
 c33: - x1 - x2 - x44 >= -114.088180541992
 c34: - x1 - x2 - x7 >= -108.44229888916
 c35: - x1 - x2 - x39 >= -99.5161056518555
 c36: - x1 - x2 - x40 >= -170.511993408203
 c37: - x1 - x2 - x27 >= -92.1622772216797
 c38: - x1 - x2 - x14 >= -43.5570335388184
 c39: - x1 - x2 - x28 >= -31.6854457855225
 c40: - x1 - x2 - x41 >= -196.948654174805
 c41: - x1 - x2 - x8 >= -25.577917098999
 c42: - x1 - x2 - x15 >= -13.6814126968384
 c43: - x1 - x2 - x45 >= -68.9748458862305
 c44: - x1 - x2 - x16 >= -2.28350424766541
 c45: - x1 - x2 - x46 >= -131.937850952148
 c46: - x1 - x2 - x29 >= -71.4165573120117
 c47: - x1 - x2 - x50 >= -163.703994750977
 c48: - x1 - x2 - x17 >= -44.1403846740723
 c49: - x1 - x2 - x18 >= -78.5147094726562
 c50: - x1 - x2 - x30 >= -87.718132019043
 c51: - x1 - x2 - x19 >= -32.3677215576172
 c52: - x1 - x2 - x9 >= -51.4982643127441
 c53: - x1 - x2 - x47 >= -139.68376159668
 c54: - x1 - x2 - x31 >= -109.711311340332
 c55: - x1 - x2 - x20 >= -84.1977233886719
 c56: - x1 - x2 - x4 - x14 - x15 - x21 - x22 - x23 - x32 - x42 - x43 - x44
      - x48 >= -377.049896240234
 c57: - x1 - x2 - x24 - x25 - x33 - x34 - x42 - x45 - x46 - x49 - x50
      >= -369.4765625
Bounds
      x1 Free
      x2 Free
      x3 Free
      x4 Free
      x5 Free
      x6 Free
      x7 Free
      x8 Free
      x9 Free
      x10 Free
      x11 Free
      x12 Free
      x13 Free
      x14 Free
      x15 Free
      x16 Free
      x17 Free
      x18 Free
      x19 Free
      x20 Free
      x21 Free
      x22 Free
      x23 Free
      x24 Free
      x25 Free
      x26 Free
      x27 Free
      x28 Free
      x29 Free
      x30 Free
      x31 Free
      x32 Free
      x33 Free
      x34 Free
      x35 Free
      x36 Free
      x37 Free
      x38 Free
      x39 Free
      x40 Free
      x41 Free
      x42 Free
      x43 Free
      x44 Free
      x45 Free
      x46 Free
      x47 Free
      x48 Free
      x49 Free
      x50 Free
End
